(define-fun-rec
  u2
  ((x Int) (y Int)) Int (ite (<= x 0) y (+ (u2 (- x 1) y) x)))
(define-fun
  v2
  ((x Int)) Int (u2 x 1))
(define-fun-rec
  u1
  ((x Int) (y Int)) Int (ite (<= x 0) y (v2 (u1 (- x 1) y))))
(define-fun
  h5
  () Int (* 2 (+ 2 2)))
(define-fun
  h1
  () Int (* 2 (+ 2 2)))
(define-fun
  v1
  () Int (u1 2 h1))
(define-fun
  g4
  ((x Int) (y Int)) Int y)
(define-fun
  g3
  ((x Int)) Int x)
(define-fun
  g2
  ((x Int)) Int x)
(define-fun
  g0
  ((x Int)) Int x)
(define-fun
  f5
  ((x Int)) Int (* (+ 1 (+ 2 x)) (* x x)))
(define-fun-rec
  u5
  ((x Int) (y Int)) Int (ite (<= x 0) y (f5 (u5 (- x 1) y))))
(define-fun
  v5
  () Int (u5 1 h5))
(define-fun
  f4
  ((x Int)) Int (mod v5 (+ 1 x)))
(define-fun-rec
  t4
  ((x Int)) Int (ite (<= (f4 x) 0) x (t4 (+ x 1))))
(define-fun-rec
  u4
  ((x Int)) Int (ite (<= x 0) (t4 0) (t4 (+ (u4 (- x 1)) 1))))
(define-fun
  v4
  ((x Int) (y Int)) Int (u4 y))
(define-fun-rec
  u3
  ((x Int) (y Int)) Int (ite (<= x 0) y (v4 (u3 (- x 1) y) x)))
(define-fun
  v3
  ((x Int)) Int (u3 x 0))
(define-fun
  fast
  ((x Int)) Int (+ (v3 x) 1))
(define-fun
  f0
  ((x Int)) Int (mod v1 (+ 1 x)))
(define-fun-rec
  t0
  ((x Int)) Int (ite (<= (f0 x) 0) x (t0 (+ x 1))))
(define-fun-rec
  u0
  ((x Int)) Int (ite (<= x 0) (t0 0) (t0 (+ (u0 (- x 1)) 1))))
(define-fun
  small
  ((x Int)) Int (+ (u0 x) 1))
(assert-not
  (forall ((c Int)) (or (not (>= c 0)) (= (small c) (fast c)))))
